p cnf 361 1
361 0
w 1 0.0131175
w 2 1 0
w 2 -1 1
w 3 2 0.501844
w 3 -2 0.653522
w 4 3 0.881442
w 4 -3 0.82436
w 5 4 1
w 5 -4 0
w 6 5 0
w 6 -5 1
w 7 6 0
w 7 -6 1
w 8 7 0.847063
w 8 -7 0.0664863
w 9 8 0
w 9 -8 1
w 10 9 1
w 10 -9 0
w 11 10 1
w 11 -10 0
w 12 11 0.591538
w 12 -11 0.466999
w 13 12 1
w 13 -12 0
w 14 13 0
w 14 -13 1
w 15 14 1
w 15 -14 0
w 16 15 0.339274
w 16 -15 0.783758
w 17 16 1
w 17 -16 0
w 18 17 1
w 18 -17 0
w 19 18 1
w 19 -18 0
w 20 1 0.0751083
w 20 -1 0.873014
w 21 20 2 0.872851
w 21 20 -2 0.720077
w 21 -20 2 0.875419
w 21 -20 -2 0.945141
w 22 21 3 0.343715
w 22 21 -3 0.157754
w 22 -21 3 0.205218
w 22 -21 -3 0.488634
w 23 22 4 0
w 23 22 -4 1
w 23 -22 4 1
w 23 -22 -4 1
w 24 23 5 1
w 24 23 -5 0
w 24 -23 5 0
w 24 -23 -5 1
w 25 24 6 1
w 25 24 -6 1
w 25 -24 6 1
w 25 -24 -6 0
w 26 25 7 1
w 26 25 -7 0
w 26 -25 7 1
w 26 -25 -7 1
w 27 26 8 1
w 27 26 -8 1
w 27 -26 8 1
w 27 -26 -8 0
w 28 27 9 0
w 28 27 -9 1
w 28 -27 9 0
w 28 -27 -9 1
w 29 28 10 0
w 29 28 -10 0
w 29 -28 10 1
w 29 -28 -10 1
w 30 29 11 1
w 30 29 -11 0
w 30 -29 11 0
w 30 -29 -11 1
w 31 30 12 1
w 31 30 -12 1
w 31 -30 12 0
w 31 -30 -12 1
w 32 31 13 0.125784
w 32 31 -13 0.273394
w 32 -31 13 0.39922
w 32 -31 -13 0.354134
w 33 32 14 0.749706
w 33 32 -14 0.455335
w 33 -32 14 0.0246793
w 33 -32 -14 0.97561
w 34 33 15 1
w 34 33 -15 1
w 34 -33 15 0
w 34 -33 -15 1
w 35 34 16 0
w 35 34 -16 1
w 35 -34 16 0
w 35 -34 -16 1
w 36 35 17 0.765871
w 36 35 -17 0.975233
w 36 -35 17 0.034661
w 36 -35 -17 0.330903
w 37 36 18 0.488204
w 37 36 -18 0.0962209
w 37 -36 18 0.195922
w 37 -36 -18 0.460747
w 38 37 19 0
w 38 37 -19 1
w 38 -37 19 0
w 38 -37 -19 1
w 39 20 0.789418
w 39 -20 0.202513
w 40 39 21 0
w 40 39 -21 0
w 40 -39 21 1
w 40 -39 -21 1
w 41 40 22 0
w 41 40 -22 0
w 41 -40 22 1
w 41 -40 -22 0
w 42 41 23 0.581697
w 42 41 -23 0.427557
w 42 -41 23 0.710076
w 42 -41 -23 0.55693
w 43 42 24 1
w 43 42 -24 0
w 43 -42 24 1
w 43 -42 -24 0
w 44 43 25 1
w 44 43 -25 0
w 44 -43 25 1
w 44 -43 -25 0
w 45 44 26 0.178666
w 45 44 -26 0.938366
w 45 -44 26 0.654064
w 45 -44 -26 0.381179
w 46 45 27 1
w 46 45 -27 1
w 46 -45 27 1
w 46 -45 -27 0
w 47 46 28 1
w 47 46 -28 1
w 47 -46 28 1
w 47 -46 -28 0
w 48 47 29 0
w 48 47 -29 1
w 48 -47 29 1
w 48 -47 -29 1
w 49 48 30 0
w 49 48 -30 1
w 49 -48 30 1
w 49 -48 -30 0
w 50 49 31 0.496148
w 50 49 -31 0.306175
w 50 -49 31 0.491427
w 50 -49 -31 0.493849
w 51 50 32 0
w 51 50 -32 1
w 51 -50 32 1
w 51 -50 -32 1
w 52 51 33 0.293046
w 52 51 -33 0.610573
w 52 -51 33 0.998627
w 52 -51 -33 0.656846
w 53 52 34 0.834125
w 53 52 -34 0.259908
w 53 -52 34 0.502717
w 53 -52 -34 0.312447
w 54 53 35 0
w 54 53 -35 1
w 54 -53 35 1
w 54 -53 -35 1
w 55 54 36 0.311587
w 55 54 -36 0.624932
w 55 -54 36 0.0827112
w 55 -54 -36 0.396566
w 56 55 37 0
w 56 55 -37 0
w 56 -55 37 1
w 56 -55 -37 0
w 57 56 38 1
w 57 56 -38 0
w 57 -56 38 0
w 57 -56 -38 1
w 58 39 1
w 58 -39 0
w 59 58 40 0
w 59 58 -40 0
w 59 -58 40 1
w 59 -58 -40 0
w 60 59 41 0
w 60 59 -41 1
w 60 -59 41 0
w 60 -59 -41 1
w 61 60 42 0
w 61 60 -42 0
w 61 -60 42 1
w 61 -60 -42 0
w 62 61 43 1
w 62 61 -43 0
w 62 -61 43 1
w 62 -61 -43 0
w 63 62 44 1
w 63 62 -44 0
w 63 -62 44 1
w 63 -62 -44 0
w 64 63 45 1
w 64 63 -45 1
w 64 -63 45 0
w 64 -63 -45 0
w 65 64 46 0
w 65 64 -46 1
w 65 -64 46 0
w 65 -64 -46 0
w 66 65 47 1
w 66 65 -47 0
w 66 -65 47 1
w 66 -65 -47 0
w 67 66 48 1
w 67 66 -48 0
w 67 -66 48 0
w 67 -66 -48 0
w 68 67 49 0
w 68 67 -49 1
w 68 -67 49 1
w 68 -67 -49 1
w 69 68 50 0
w 69 68 -50 0
w 69 -68 50 0
w 69 -68 -50 1
w 70 69 51 0.0733714
w 70 69 -51 0.51464
w 70 -69 51 0.0398994
w 70 -69 -51 0.49506
w 71 70 52 0.691752
w 71 70 -52 0.578554
w 71 -70 52 0.0542966
w 71 -70 -52 0.927593
w 72 71 53 0.724817
w 72 71 -53 0.581547
w 72 -71 53 0.961409
w 72 -71 -53 0.462924
w 73 72 54 0.0253692
w 73 72 -54 0.325029
w 73 -72 54 0.453605
w 73 -72 -54 0.349611
w 74 73 55 0
w 74 73 -55 0
w 74 -73 55 1
w 74 -73 -55 1
w 75 74 56 0
w 75 74 -56 1
w 75 -74 56 1
w 75 -74 -56 1
w 76 75 57 0.611922
w 76 75 -57 0.223632
w 76 -75 57 0.849268
w 76 -75 -57 0.106982
w 77 58 0
w 77 -58 1
w 78 77 59 0
w 78 77 -59 0
w 78 -77 59 1
w 78 -77 -59 1
w 79 78 60 0
w 79 78 -60 1
w 79 -78 60 1
w 79 -78 -60 0
w 80 79 61 1
w 80 79 -61 0
w 80 -79 61 1
w 80 -79 -61 1
w 81 80 62 0
w 81 80 -62 0
w 81 -80 62 1
w 81 -80 -62 1
w 82 81 63 0.194574
w 82 81 -63 0.434031
w 82 -81 63 0.568419
w 82 -81 -63 0.00394254
w 83 82 64 1
w 83 82 -64 0
w 83 -82 64 1
w 83 -82 -64 1
w 84 83 65 0
w 84 83 -65 1
w 84 -83 65 1
w 84 -83 -65 0
w 85 84 66 1
w 85 84 -66 0
w 85 -84 66 1
w 85 -84 -66 1
w 86 85 67 0.295959
w 86 85 -67 0.399052
w 86 -85 67 0.787996
w 86 -85 -67 0.666619
w 87 86 68 0.036343
w 87 86 -68 0.0439916
w 87 -86 68 0.194604
w 87 -86 -68 0.394956
w 88 87 69 0.0540303
w 88 87 -69 0.58953
w 88 -87 69 0.373502
w 88 -87 -69 0.622449
w 89 88 70 0
w 89 88 -70 0
w 89 -88 70 1
w 89 -88 -70 0
w 90 89 71 0
w 90 89 -71 0
w 90 -89 71 1
w 90 -89 -71 1
w 91 90 72 0.712035
w 91 90 -72 0.616759
w 91 -90 72 0.0479207
w 91 -90 -72 0.26865
w 92 91 73 0
w 92 91 -73 0
w 92 -91 73 0
w 92 -91 -73 1
w 93 92 74 0.657629
w 93 92 -74 0.275219
w 93 -92 74 0.0421052
w 93 -92 -74 0.0525855
w 94 93 75 0
w 94 93 -75 0
w 94 -93 75 1
w 94 -93 -75 1
w 95 94 76 0
w 95 94 -76 1
w 95 -94 76 0
w 95 -94 -76 0
w 96 77 0
w 96 -77 1
w 97 96 78 0.0816521
w 97 96 -78 0.226941
w 97 -96 78 0.906461
w 97 -96 -78 0.793687
w 98 97 79 0.954382
w 98 97 -79 0.0623368
w 98 -97 79 0.389683
w 98 -97 -79 0.787672
w 99 98 80 0
w 99 98 -80 0
w 99 -98 80 0
w 99 -98 -80 1
w 100 99 81 1
w 100 99 -81 1
w 100 -99 81 0
w 100 -99 -81 1
w 101 100 82 1
w 101 100 -82 0
w 101 -100 82 0
w 101 -100 -82 0
w 102 101 83 0.172129
w 102 101 -83 0.679149
w 102 -101 83 0.523955
w 102 -101 -83 0.684044
w 103 102 84 1
w 103 102 -84 1
w 103 -102 84 1
w 103 -102 -84 0
w 104 103 85 0
w 104 103 -85 1
w 104 -103 85 0
w 104 -103 -85 0
w 105 104 86 1
w 105 104 -86 1
w 105 -104 86 0
w 105 -104 -86 1
w 106 105 87 1
w 106 105 -87 0
w 106 -105 87 0
w 106 -105 -87 1
w 107 106 88 1
w 107 106 -88 0
w 107 -106 88 1
w 107 -106 -88 0
w 108 107 89 0
w 108 107 -89 1
w 108 -107 89 0
w 108 -107 -89 0
w 109 108 90 0
w 109 108 -90 1
w 109 -108 90 1
w 109 -108 -90 0
w 110 109 91 0.944676
w 110 109 -91 0.0999882
w 110 -109 91 0.304311
w 110 -109 -91 0.566396
w 111 110 92 0.467677
w 111 110 -92 0.815062
w 111 -110 92 0.760024
w 111 -110 -92 0.0400011
w 112 111 93 0.93962
w 112 111 -93 0.678913
w 112 -111 93 0.16213
w 112 -111 -93 0.34354
w 113 112 94 1
w 113 112 -94 1
w 113 -112 94 1
w 113 -112 -94 0
w 114 113 95 0.472624
w 114 113 -95 0.743527
w 114 -113 95 0.766895
w 114 -113 -95 0.668025
w 115 96 0
w 115 -96 1
w 116 115 97 0
w 116 115 -97 1
w 116 -115 97 1
w 116 -115 -97 0
w 117 116 98 1
w 117 116 -98 1
w 117 -116 98 1
w 117 -116 -98 0
w 118 117 99 1
w 118 117 -99 0
w 118 -117 99 0
w 118 -117 -99 1
w 119 118 100 0
w 119 118 -100 1
w 119 -118 100 0
w 119 -118 -100 1
w 120 119 101 0.0561832
w 120 119 -101 0.207413
w 120 -119 101 0.697856
w 120 -119 -101 0.528807
w 121 120 102 0.464751
w 121 120 -102 0.196832
w 121 -120 102 0.686925
w 121 -120 -102 0.851243
w 122 121 103 1
w 122 121 -103 1
w 122 -121 103 0
w 122 -121 -103 1
w 123 122 104 1
w 123 122 -104 0
w 123 -122 104 1
w 123 -122 -104 1
w 124 123 105 1
w 124 123 -105 0
w 124 -123 105 0
w 124 -123 -105 1
w 125 124 106 0.16896
w 125 124 -106 0.922036
w 125 -124 106 0.672616
w 125 -124 -106 0.268771
w 126 125 107 0.539129
w 126 125 -107 0.324955
w 126 -125 107 0.0618387
w 126 -125 -107 0.236985
w 127 126 108 0.0127788
w 127 126 -108 0.701737
w 127 -126 108 0.0505942
w 127 -126 -108 0.699703
w 128 127 109 0
w 128 127 -109 1
w 128 -127 109 0
w 128 -127 -109 0
w 129 128 110 0
w 129 128 -110 0
w 129 -128 110 1
w 129 -128 -110 1
w 130 129 111 0.85811
w 130 129 -111 0.939189
w 130 -129 111 0.338791
w 130 -129 -111 0.598196
w 131 130 112 0.507752
w 131 130 -112 0.520231
w 131 -130 112 0.485828
w 131 -130 -112 0.776523
w 132 131 113 0
w 132 131 -113 1
w 132 -131 113 1
w 132 -131 -113 1
w 133 132 114 0.449274
w 133 132 -114 0.963679
w 133 -132 114 0.00583405
w 133 -132 -114 0.148978
w 134 115 0
w 134 -115 1
w 135 134 116 0.692667
w 135 134 -116 0.787576
w 135 -134 116 0.510945
w 135 -134 -116 0.208164
w 136 135 117 1
w 136 135 -117 0
w 136 -135 117 1
w 136 -135 -117 1
w 137 136 118 0
w 137 136 -118 1
w 137 -136 118 1
w 137 -136 -118 0
w 138 137 119 1
w 138 137 -119 0
w 138 -137 119 0
w 138 -137 -119 1
w 139 138 120 1
w 139 138 -120 1
w 139 -138 120 0
w 139 -138 -120 1
w 140 139 121 0
w 140 139 -121 1
w 140 -139 121 1
w 140 -139 -121 0
w 141 140 122 1
w 141 140 -122 1
w 141 -140 122 1
w 141 -140 -122 0
w 142 141 123 0.850459
w 142 141 -123 0.843133
w 142 -141 123 0.176781
w 142 -141 -123 0.774936
w 143 142 124 0
w 143 142 -124 0
w 143 -142 124 1
w 143 -142 -124 1
w 144 143 125 1
w 144 143 -125 1
w 144 -143 125 0
w 144 -143 -125 1
w 145 144 126 1
w 145 144 -126 1
w 145 -144 126 0
w 145 -144 -126 0
w 146 145 127 0.528735
w 146 145 -127 0.319377
w 146 -145 127 0.651576
w 146 -145 -127 0.458677
w 147 146 128 0.162424
w 147 146 -128 0.0812866
w 147 -146 128 0.424204
w 147 -146 -128 0.184216
w 148 147 129 0.274663
w 148 147 -129 0.0273491
w 148 -147 129 0.0888409
w 148 -147 -129 0.0495994
w 149 148 130 0
w 149 148 -130 1
w 149 -148 130 0
w 149 -148 -130 0
w 150 149 131 1
w 150 149 -131 1
w 150 -149 131 0
w 150 -149 -131 1
w 151 150 132 0
w 151 150 -132 0
w 151 -150 132 1
w 151 -150 -132 0
w 152 151 133 0.617948
w 152 151 -133 0.791897
w 152 -151 133 0.217415
w 152 -151 -133 0.269524
w 153 134 1
w 153 -134 0
w 154 153 135 1
w 154 153 -135 0
w 154 -153 135 1
w 154 -153 -135 0
w 155 154 136 0.643512
w 155 154 -136 0.332762
w 155 -154 136 0.943884
w 155 -154 -136 0.16798
w 156 155 137 0.632085
w 156 155 -137 0.182341
w 156 -155 137 0.455452
w 156 -155 -137 0.635765
w 157 156 138 1
w 157 156 -138 0
w 157 -156 138 0
w 157 -156 -138 0
w 158 157 139 1
w 158 157 -139 1
w 158 -157 139 0
w 158 -157 -139 1
w 159 158 140 1
w 159 158 -140 1
w 159 -158 140 1
w 159 -158 -140 0
w 160 159 141 0.902835
w 160 159 -141 0.308139
w 160 -159 141 0.609728
w 160 -159 -141 0.146756
w 161 160 142 0
w 161 160 -142 0
w 161 -160 142 1
w 161 -160 -142 0
w 162 161 143 1
w 162 161 -143 1
w 162 -161 143 0
w 162 -161 -143 1
w 163 162 144 1
w 163 162 -144 0
w 163 -162 144 0
w 163 -162 -144 1
w 164 163 145 1
w 164 163 -145 0
w 164 -163 145 0
w 164 -163 -145 0
w 165 164 146 1
w 165 164 -146 1
w 165 -164 146 0
w 165 -164 -146 1
w 166 165 147 0.119841
w 166 165 -147 0.393166
w 166 -165 147 0.458605
w 166 -165 -147 0.266597
w 167 166 148 0
w 167 166 -148 1
w 167 -166 148 0
w 167 -166 -148 0
w 168 167 149 1
w 168 167 -149 0
w 168 -167 149 0
w 168 -167 -149 0
w 169 168 150 0
w 169 168 -150 1
w 169 -168 150 1
w 169 -168 -150 0
w 170 169 151 1
w 170 169 -151 1
w 170 -169 151 1
w 170 -169 -151 0
w 171 170 152 0
w 171 170 -152 1
w 171 -170 152 1
w 171 -170 -152 0
w 172 153 0.444178
w 172 -153 0.571875
w 173 172 154 1
w 173 172 -154 1
w 173 -172 154 1
w 173 -172 -154 0
w 174 173 155 1
w 174 173 -155 0
w 174 -173 155 1
w 174 -173 -155 1
w 175 174 156 0
w 175 174 -156 1
w 175 -174 156 1
w 175 -174 -156 0
w 176 175 157 0
w 176 175 -157 1
w 176 -175 157 0
w 176 -175 -157 1
w 177 176 158 1
w 177 176 -158 1
w 177 -176 158 0
w 177 -176 -158 1
w 178 177 159 0
w 178 177 -159 1
w 178 -177 159 0
w 178 -177 -159 1
w 179 178 160 1
w 179 178 -160 1
w 179 -178 160 0
w 179 -178 -160 0
w 180 179 161 0
w 180 179 -161 0
w 180 -179 161 1
w 180 -179 -161 0
w 181 180 162 0
w 181 180 -162 0
w 181 -180 162 0
w 181 -180 -162 1
w 182 181 163 0
w 182 181 -163 1
w 182 -181 163 1
w 182 -181 -163 1
w 183 182 164 0.93767
w 183 182 -164 0.412873
w 183 -182 164 0.916014
w 183 -182 -164 0.466743
w 184 183 165 0
w 184 183 -165 0
w 184 -183 165 1
w 184 -183 -165 0
w 185 184 166 0
w 185 184 -166 1
w 185 -184 166 0
w 185 -184 -166 0
w 186 185 167 1
w 186 185 -167 0
w 186 -185 167 1
w 186 -185 -167 1
w 187 186 168 0.902684
w 187 186 -168 0.924181
w 187 -186 168 0.257756
w 187 -186 -168 0.829761
w 188 187 169 1
w 188 187 -169 1
w 188 -187 169 0
w 188 -187 -169 1
w 189 188 170 0
w 189 188 -170 0
w 189 -188 170 1
w 189 -188 -170 0
w 190 189 171 0
w 190 189 -171 0
w 190 -189 171 0
w 190 -189 -171 1
w 191 172 0.809665
w 191 -172 0.0853339
w 192 191 173 1
w 192 191 -173 0
w 192 -191 173 1
w 192 -191 -173 0
w 193 192 174 0
w 193 192 -174 0
w 193 -192 174 1
w 193 -192 -174 0
w 194 193 175 0
w 194 193 -175 0
w 194 -193 175 1
w 194 -193 -175 1
w 195 194 176 0
w 195 194 -176 1
w 195 -194 176 0
w 195 -194 -176 1
w 196 195 177 0.445865
w 196 195 -177 0.719099
w 196 -195 177 0.674471
w 196 -195 -177 0.553632
w 197 196 178 1
w 197 196 -178 1
w 197 -196 178 0
w 197 -196 -178 0
w 198 197 179 1
w 198 197 -179 1
w 198 -197 179 0
w 198 -197 -179 0
w 199 198 180 1
w 199 198 -180 0
w 199 -198 180 1
w 199 -198 -180 1
w 200 199 181 1
w 200 199 -181 1
w 200 -199 181 0
w 200 -199 -181 0
w 201 200 182 0
w 201 200 -182 0
w 201 -200 182 1
w 201 -200 -182 0
w 202 201 183 1
w 202 201 -183 1
w 202 -201 183 0
w 202 -201 -183 1
w 203 202 184 0.464709
w 203 202 -184 0.660913
w 203 -202 184 0.403156
w 203 -202 -184 0.917564
w 204 203 185 0.234682
w 204 203 -185 0.824077
w 204 -203 185 0.819336
w 204 -203 -185 0.419227
w 205 204 186 0
w 205 204 -186 0
w 205 -204 186 1
w 205 -204 -186 0
w 206 205 187 0
w 206 205 -187 1
w 206 -205 187 1
w 206 -205 -187 0
w 207 206 188 0
w 207 206 -188 0
w 207 -206 188 1
w 207 -206 -188 0
w 208 207 189 0
w 208 207 -189 0
w 208 -207 189 0
w 208 -207 -189 1
w 209 208 190 0.810172
w 209 208 -190 0.00946777
w 209 -208 190 0.495374
w 209 -208 -190 0.213328
w 210 191 0.282827
w 210 -191 0.44801
w 211 210 192 0.102163
w 211 210 -192 0.867237
w 211 -210 192 0.892446
w 211 -210 -192 0.619585
w 212 211 193 0
w 212 211 -193 1
w 212 -211 193 0
w 212 -211 -193 0
w 213 212 194 0
w 213 212 -194 0
w 213 -212 194 1
w 213 -212 -194 0
w 214 213 195 0
w 214 213 -195 0
w 214 -213 195 1
w 214 -213 -195 0
w 215 214 196 1
w 215 214 -196 0
w 215 -214 196 1
w 215 -214 -196 1
w 216 215 197 0
w 216 215 -197 0
w 216 -215 197 1
w 216 -215 -197 0
w 217 216 198 0
w 217 216 -198 1
w 217 -216 198 0
w 217 -216 -198 1
w 218 217 199 1
w 218 217 -199 1
w 218 -217 199 0
w 218 -217 -199 1
w 219 218 200 1
w 219 218 -200 0
w 219 -218 200 1
w 219 -218 -200 1
w 220 219 201 0
w 220 219 -201 0
w 220 -219 201 1
w 220 -219 -201 0
w 221 220 202 0
w 221 220 -202 1
w 221 -220 202 0
w 221 -220 -202 0
w 222 221 203 0
w 222 221 -203 1
w 222 -221 203 0
w 222 -221 -203 0
w 223 222 204 0
w 223 222 -204 1
w 223 -222 204 1
w 223 -222 -204 0
w 224 223 205 1
w 224 223 -205 1
w 224 -223 205 1
w 224 -223 -205 0
w 225 224 206 1
w 225 224 -206 0
w 225 -224 206 0
w 225 -224 -206 0
w 226 225 207 0
w 226 225 -207 1
w 226 -225 207 0
w 226 -225 -207 1
w 227 226 208 0.194179
w 227 226 -208 0.0947025
w 227 -226 208 0.704636
w 227 -226 -208 0.837224
w 228 227 209 1
w 228 227 -209 1
w 228 -227 209 1
w 228 -227 -209 0
w 229 210 0.427541
w 229 -210 0.552917
w 230 229 211 0
w 230 229 -211 0
w 230 -229 211 0
w 230 -229 -211 1
w 231 230 212 1
w 231 230 -212 0
w 231 -230 212 0
w 231 -230 -212 0
w 232 231 213 0.356488
w 232 231 -213 0.717446
w 232 -231 213 0.480554
w 232 -231 -213 0.939401
w 233 232 214 0
w 233 232 -214 1
w 233 -232 214 1
w 233 -232 -214 0
w 234 233 215 0
w 234 233 -215 1
w 234 -233 215 1
w 234 -233 -215 0
w 235 234 216 1
w 235 234 -216 0
w 235 -234 216 1
w 235 -234 -216 0
w 236 235 217 0
w 236 235 -217 0
w 236 -235 217 1
w 236 -235 -217 0
w 237 236 218 1
w 237 236 -218 1
w 237 -236 218 0
w 237 -236 -218 1
w 238 237 219 0.853165
w 238 237 -219 0.448132
w 238 -237 219 0.619828
w 238 -237 -219 0.333719
w 239 238 220 0
w 239 238 -220 1
w 239 -238 220 0
w 239 -238 -220 1
w 240 239 221 0.646371
w 240 239 -221 0.157756
w 240 -239 221 0.191159
w 240 -239 -221 0.544988
w 241 240 222 0
w 241 240 -222 1
w 241 -240 222 0
w 241 -240 -222 1
w 242 241 223 0
w 242 241 -223 0
w 242 -241 223 0
w 242 -241 -223 1
w 243 242 224 0
w 243 242 -224 0
w 243 -242 224 1
w 243 -242 -224 0
w 244 243 225 0
w 244 243 -225 0
w 244 -243 225 0
w 244 -243 -225 1
w 245 244 226 0
w 245 244 -226 0
w 245 -244 226 0
w 245 -244 -226 1
w 246 245 227 0
w 246 245 -227 1
w 246 -245 227 1
w 246 -245 -227 1
w 247 246 228 0
w 247 246 -228 0
w 247 -246 228 0
w 247 -246 -228 1
w 248 229 0
w 248 -229 1
w 249 248 230 0.647587
w 249 248 -230 0.826069
w 249 -248 230 0.614818
w 249 -248 -230 0.387252
w 250 249 231 0
w 250 249 -231 1
w 250 -249 231 1
w 250 -249 -231 0
w 251 250 232 1
w 251 250 -232 1
w 251 -250 232 1
w 251 -250 -232 0
w 252 251 233 0
w 252 251 -233 1
w 252 -251 233 0
w 252 -251 -233 1
w 253 252 234 0.292364
w 253 252 -234 0.912428
w 253 -252 234 0.324658
w 253 -252 -234 0.733106
w 254 253 235 1
w 254 253 -235 0
w 254 -253 235 1
w 254 -253 -235 0
w 255 254 236 1
w 255 254 -236 1
w 255 -254 236 0
w 255 -254 -236 0
w 256 255 237 1
w 256 255 -237 0
w 256 -255 237 1
w 256 -255 -237 0
w 257 256 238 0
w 257 256 -238 1
w 257 -256 238 1
w 257 -256 -238 1
w 258 257 239 0
w 258 257 -239 1
w 258 -257 239 1
w 258 -257 -239 0
w 259 258 240 1
w 259 258 -240 1
w 259 -258 240 0
w 259 -258 -240 0
w 260 259 241 0
w 260 259 -241 0
w 260 -259 241 1
w 260 -259 -241 0
w 261 260 242 1
w 261 260 -242 1
w 261 -260 242 1
w 261 -260 -242 0
w 262 261 243 1
w 262 261 -243 0
w 262 -261 243 0
w 262 -261 -243 0
w 263 262 244 0
w 263 262 -244 0
w 263 -262 244 1
w 263 -262 -244 0
w 264 263 245 0
w 264 263 -245 1
w 264 -263 245 0
w 264 -263 -245 1
w 265 264 246 0
w 265 264 -246 0
w 265 -264 246 0
w 265 -264 -246 1
w 266 265 247 0
w 266 265 -247 1
w 266 -265 247 0
w 266 -265 -247 1
w 267 248 0
w 267 -248 1
w 268 267 249 1
w 268 267 -249 1
w 268 -267 249 0
w 268 -267 -249 1
w 269 268 250 0.178237
w 269 268 -250 0.306991
w 269 -268 250 0.349956
w 269 -268 -250 0.488132
w 270 269 251 0
w 270 269 -251 0
w 270 -269 251 1
w 270 -269 -251 0
w 271 270 252 0
w 271 270 -252 0
w 271 -270 252 1
w 271 -270 -252 0
w 272 271 253 1
w 272 271 -253 0
w 272 -271 253 0
w 272 -271 -253 0
w 273 272 254 0.823533
w 273 272 -254 0.157267
w 273 -272 254 0.591357
w 273 -272 -254 0.106775
w 274 273 255 0
w 274 273 -255 1
w 274 -273 255 1
w 274 -273 -255 0
w 275 274 256 1
w 275 274 -256 0
w 275 -274 256 0
w 275 -274 -256 1
w 276 275 257 1
w 276 275 -257 0
w 276 -275 257 1
w 276 -275 -257 1
w 277 276 258 1
w 277 276 -258 1
w 277 -276 258 1
w 277 -276 -258 0
w 278 277 259 0.527051
w 278 277 -259 0.99709
w 278 -277 259 0.401466
w 278 -277 -259 0.0774216
w 279 278 260 0.224998
w 279 278 -260 0.234689
w 279 -278 260 0.582835
w 279 -278 -260 0.331773
w 280 279 261 0.531114
w 280 279 -261 0.233258
w 280 -279 261 0.0150324
w 280 -279 -261 0.254643
w 281 280 262 1
w 281 280 -262 1
w 281 -280 262 0
w 281 -280 -262 0
w 282 281 263 1
w 282 281 -263 0
w 282 -281 263 1
w 282 -281 -263 0
w 283 282 264 0.307901
w 283 282 -264 0.535472
w 283 -282 264 0.314047
w 283 -282 -264 0.221209
w 284 283 265 0.271596
w 284 283 -265 0.74826
w 284 -283 265 0.812093
w 284 -283 -265 0.673062
w 285 284 266 0.803571
w 285 284 -266 0.89806
w 285 -284 266 0.0603711
w 285 -284 -266 0.386406
w 286 267 0
w 286 -267 1
w 287 286 268 0.463091
w 287 286 -268 0.869224
w 287 -286 268 0.172163
w 287 -286 -268 0.77607
w 288 287 269 1
w 288 287 -269 0
w 288 -287 269 1
w 288 -287 -269 1
w 289 288 270 1
w 289 288 -270 0
w 289 -288 270 0
w 289 -288 -270 1
w 290 289 271 0
w 290 289 -271 1
w 290 -289 271 0
w 290 -289 -271 1
w 291 290 272 0
w 291 290 -272 1
w 291 -290 272 0
w 291 -290 -272 0
w 292 291 273 0
w 292 291 -273 1
w 292 -291 273 0
w 292 -291 -273 0
w 293 292 274 0.785868
w 293 292 -274 0.26686
w 293 -292 274 0.0180339
w 293 -292 -274 0.561938
w 294 293 275 1
w 294 293 -275 0
w 294 -293 275 1
w 294 -293 -275 0
w 295 294 276 0.457527
w 295 294 -276 0.0462648
w 295 -294 276 0.406208
w 295 -294 -276 0.393706
w 296 295 277 1
w 296 295 -277 1
w 296 -295 277 1
w 296 -295 -277 0
w 297 296 278 1
w 297 296 -278 0
w 297 -296 278 0
w 297 -296 -278 1
w 298 297 279 1
w 298 297 -279 0
w 298 -297 279 1
w 298 -297 -279 1
w 299 298 280 0
w 299 298 -280 1
w 299 -298 280 0
w 299 -298 -280 0
w 300 299 281 1
w 300 299 -281 0
w 300 -299 281 1
w 300 -299 -281 0
w 301 300 282 0
w 301 300 -282 1
w 301 -300 282 1
w 301 -300 -282 1
w 302 301 283 0
w 302 301 -283 0
w 302 -301 283 0
w 302 -301 -283 1
w 303 302 284 0
w 303 302 -284 1
w 303 -302 284 0
w 303 -302 -284 0
w 304 303 285 1
w 304 303 -285 1
w 304 -303 285 0
w 304 -303 -285 1
w 305 286 1
w 305 -286 0
w 306 305 287 0.252968
w 306 305 -287 0.114165
w 306 -305 287 0.940796
w 306 -305 -287 0.924007
w 307 306 288 1
w 307 306 -288 0
w 307 -306 288 1
w 307 -306 -288 1
w 308 307 289 0
w 308 307 -289 0
w 308 -307 289 1
w 308 -307 -289 0
w 309 308 290 1
w 309 308 -290 0
w 309 -308 290 0
w 309 -308 -290 0
w 310 309 291 0
w 310 309 -291 1
w 310 -309 291 1
w 310 -309 -291 1
w 311 310 292 1
w 311 310 -292 0
w 311 -310 292 1
w 311 -310 -292 0
w 312 311 293 0.888102
w 312 311 -293 0.656385
w 312 -311 293 0.917825
w 312 -311 -293 0.812109
w 313 312 294 0.201624
w 313 312 -294 0.739037
w 313 -312 294 0.654953
w 313 -312 -294 0.658828
w 314 313 295 1
w 314 313 -295 0
w 314 -313 295 0
w 314 -313 -295 0
w 315 314 296 0.107556
w 315 314 -296 0.53309
w 315 -314 296 0.504347
w 315 -314 -296 0.511009
w 316 315 297 1
w 316 315 -297 0
w 316 -315 297 0
w 316 -315 -297 0
w 317 316 298 0.372808
w 317 316 -298 0.691398
w 317 -316 298 0.00531558
w 317 -316 -298 0.00794186
w 318 317 299 0
w 318 317 -299 0
w 318 -317 299 1
w 318 -317 -299 0
w 319 318 300 1
w 319 318 -300 0
w 319 -318 300 1
w 319 -318 -300 1
w 320 319 301 0
w 320 319 -301 1
w 320 -319 301 0
w 320 -319 -301 0
w 321 320 302 1
w 321 320 -302 1
w 321 -320 302 0
w 321 -320 -302 1
w 322 321 303 1
w 322 321 -303 0
w 322 -321 303 0
w 322 -321 -303 0
w 323 322 304 0
w 323 322 -304 1
w 323 -322 304 0
w 323 -322 -304 0
w 324 305 1
w 324 -305 0
w 325 324 306 0.254334
w 325 324 -306 0.231796
w 325 -324 306 0.610556
w 325 -324 -306 0.949551
w 326 325 307 0
w 326 325 -307 0
w 326 -325 307 1
w 326 -325 -307 0
w 327 326 308 0.550477
w 327 326 -308 0.572889
w 327 -326 308 0.833932
w 327 -326 -308 0.836309
w 328 327 309 0
w 328 327 -309 1
w 328 -327 309 1
w 328 -327 -309 0
w 329 328 310 1
w 329 328 -310 0
w 329 -328 310 1
w 329 -328 -310 1
w 330 329 311 0
w 330 329 -311 1
w 330 -329 311 1
w 330 -329 -311 1
w 331 330 312 0
w 331 330 -312 1
w 331 -330 312 1
w 331 -330 -312 1
w 332 331 313 1
w 332 331 -313 1
w 332 -331 313 1
w 332 -331 -313 0
w 333 332 314 0.658522
w 333 332 -314 0.916087
w 333 -332 314 0.331215
w 333 -332 -314 0.492454
w 334 333 315 0.953202
w 334 333 -315 0.791652
w 334 -333 315 0.378883
w 334 -333 -315 0.135296
w 335 334 316 0
w 335 334 -316 1
w 335 -334 316 1
w 335 -334 -316 1
w 336 335 317 0.818947
w 336 335 -317 0.344624
w 336 -335 317 0.215931
w 336 -335 -317 0.375221
w 337 336 318 0
w 337 336 -318 0
w 337 -336 318 1
w 337 -336 -318 1
w 338 337 319 0.562326
w 338 337 -319 0.131159
w 338 -337 319 0.0301097
w 338 -337 -319 0.319092
w 339 338 320 1
w 339 338 -320 0
w 339 -338 320 0
w 339 -338 -320 0
w 340 339 321 0
w 340 339 -321 1
w 340 -339 321 0
w 340 -339 -321 1
w 341 340 322 1
w 341 340 -322 0
w 341 -340 322 0
w 341 -340 -322 1
w 342 341 323 0
w 342 341 -323 1
w 342 -341 323 1
w 342 -341 -323 0
w 343 324 1
w 343 -324 0
w 344 343 325 1
w 344 343 -325 0
w 344 -343 325 1
w 344 -343 -325 0
w 345 344 326 0
w 345 344 -326 0
w 345 -344 326 1
w 345 -344 -326 0
w 346 345 327 0.604332
w 346 345 -327 0.904545
w 346 -345 327 0.117684
w 346 -345 -327 0.0744004
w 347 346 328 1
w 347 346 -328 0
w 347 -346 328 1
w 347 -346 -328 1
w 348 347 329 1
w 348 347 -329 1
w 348 -347 329 0
w 348 -347 -329 1
w 349 348 330 0
w 349 348 -330 0
w 349 -348 330 0
w 349 -348 -330 1
w 350 349 331 0
w 350 349 -331 1
w 350 -349 331 1
w 350 -349 -331 1
w 351 350 332 1
w 351 350 -332 0
w 351 -350 332 0
w 351 -350 -332 1
w 352 351 333 1
w 352 351 -333 0
w 352 -351 333 0
w 352 -351 -333 1
w 353 352 334 0
w 353 352 -334 1
w 353 -352 334 0
w 353 -352 -334 1
w 354 353 335 1
w 354 353 -335 1
w 354 -353 335 1
w 354 -353 -335 0
w 355 354 336 1
w 355 354 -336 0
w 355 -354 336 0
w 355 -354 -336 1
w 356 355 337 0
w 356 355 -337 1
w 356 -355 337 0
w 356 -355 -337 1
w 357 356 338 0
w 357 356 -338 1
w 357 -356 338 1
w 357 -356 -338 0
w 358 357 339 1
w 358 357 -339 1
w 358 -357 339 0
w 358 -357 -339 1
w 359 358 340 0
w 359 358 -340 1
w 359 -358 340 0
w 359 -358 -340 0
w 360 359 341 0
w 360 359 -341 0
w 360 -359 341 1
w 360 -359 -341 1
w 361 360 342 0.640106
w 361 360 -342 0.234796
w 361 -360 342 0.277574
w 361 -360 -342 0.958903